solution status: optimal solution found
objective value:                                    0
$_116_y                                             3 	(obj:0)
$_108_y                                             1 	(obj:0)
$_108_z                                             1 	(obj:0)
$_117_y                                             3 	(obj:0)
$_117_z                                             1 	(obj:0)
$_129_y                                             2 	(obj:0)
$_129_z                                            -2 	(obj:0)
$_110_y                                             2 	(obj:0)
$_115_y                                             4 	(obj:0)
$_122_y                                             3 	(obj:0)
$_122_z                                            -1 	(obj:0)
$_124_y                                             1 	(obj:0)
$_130_z                                            -2 	(obj:0)
$_131_y                                             1 	(obj:0)
$_131_z                                            -2 	(obj:0)
$_123_y                                             2 	(obj:0)
$_123_z                                            -1 	(obj:0)
$_109_y                                             2 	(obj:0)
$_109_z                                             1 	(obj:0)
